c turning on binary mode checking
c parsing input formula with 202048 variables and 780975 clauses
c finished parsing, read 18433288 bytes from proof file
c detected empty clause; start verification via backward checking
c 35696 of 780975 clauses in core                            
c 49263 of 471530 lemmas in core using 459315 resolution steps
c 0 RAT lemmas in core; 4501 redundant literals in core lemmas
s VERIFIED
c verification time: 3.802 seconds
